p ds 49 84
1 2
1 8
2 9
2 3
3 4
3 10
4 11
4 5
5 12
5 6
6 13
6 7
7 14
8 9
8 15
9 16
9 10
10 17
10 11
11 12
11 18
12 19
12 13
13 20
13 14
14 21
15 16
15 22
16 17
16 23
17 24
17 18
18 25
18 19
19 20
19 26
20 27
20 21
21 28
22 29
22 23
23 30
23 24
24 25
24 31
25 32
25 26
26 33
26 27
27 28
27 34
28 35
29 30
29 36
30 37
30 31
31 38
31 32
32 39
32 33
33 34
33 40
34 41
34 35
35 42
36 43
36 37
37 38
37 44
38 39
38 45
39 40
39 46
40 47
40 41
41 42
41 48
42 49
43 44
44 45
45 46
46 47
47 48
48 49
